// Dezyne --- Dezyne command line tools
//
// Copyright © 2014, 2015 Rob Wieringa <Rob.Wieringa@verum.com>
//
// This file is part of Dezyne.
//
// Dezyne is free software: you can redistribute it and/or modify it
// under the terms of the GNU Affero General Public License as
// published by the Free Software Foundation, either version 3 of the
// License, or (at your option) any later version.
//
// Dezyne is distributed in the hope that it will be useful, but
// WITHOUT ANY WARRANTY; without even the implied warranty of
// MERCHANTABILITY or FITNESS FOR A PARTICULAR PURPOSE.  See the GNU
// Affero General Public License for more details.
//
// You should have received a copy of the GNU Affero General Public
// License along with Dezyne.  If not, see <http://www.gnu.org/licenses/>.
//
// Commentary:
//
// Code:

interface I
{
  enum Status { Yes, No };

  in Status done();

  behaviour
  {
    bool dummy = false;
    Status fun ()
    {
      return Status.Yes;
    }
    Status fun_arg (Status s)
    {
      return s;
    }
    on done:
    {
      [true] { reply (fun()); }
      [true] { reply (fun_arg (Status.No)); }
    }
  }
}

interface U
{
  enum Status { Ok, Nok };

  in Status what();

  behaviour
  {
    bool dummy = false;
    Status fun ()
    {
      return Status.Ok;
    }
    Status fun_arg (Status s)
    {
      return s;
    }
    on what:
    {
      [true]
      {
        reply (fun());
      }
      [true]
      {
        reply (fun_arg(Status.Nok));
      }
    }
  }
}

component Reply5
{
  provides I i;
  requires U u;

  behaviour
  {
    bool dummy = false;
    I.Status fun ()
    {
      return I.Status.Yes;
    }
    I.Status fun_arg (I.Status s)
    {
      return s;
    }
    [true]
    {
      on i.done():
      {
        U.Status s = u.what();
        s = u.what();

        if(s == U.Status.Ok)
        {
          reply (fun());
        }
        else
        {
          reply (fun_arg(I.Status.No));
        }
      }
    }
  }
}
